c CNF file corresponding to a (partial) station packing problem.
p cnf 5822 229
1 2 3 4 5 6 7 8 9 10 11 12 13 14 0
-1 -2 0
-1 -3 0
-1 -4 0
-1 -5 0
-1 -6 0
-1 -7 0
-1 -8 0
-1 -9 0
-1 -10 0
-1 -11 0
-1 -12 0
-1 -13 0
-1 -14 0
-2 -3 0
-2 -4 0
-2 -5 0
-2 -6 0
-2 -7 0
-2 -8 0
-2 -9 0
-2 -10 0
-2 -11 0
-2 -12 0
-2 -13 0
-2 -14 0
-3 -4 0
-3 -5 0
-3 -6 0
-3 -7 0
-3 -8 0
-3 -9 0
-3 -10 0
-3 -11 0
-3 -12 0
-3 -13 0
-3 -14 0
-4 -5 0
-4 -6 0
-4 -7 0
-4 -8 0
-4 -9 0
-4 -10 0
-4 -11 0
-4 -12 0
-4 -13 0
-4 -14 0
-5 -6 0
-5 -7 0
-5 -8 0
-5 -9 0
-5 -10 0
-5 -11 0
-5 -12 0
-5 -13 0
-5 -14 0
-6 -7 0
-6 -8 0
-6 -9 0
-6 -10 0
-6 -11 0
-6 -12 0
-6 -13 0
-6 -14 0
-7 -8 0
-7 -9 0
-7 -10 0
-7 -11 0
-7 -12 0
-7 -13 0
-7 -14 0
-8 -9 0
-8 -10 0
-8 -11 0
-8 -12 0
-8 -13 0
-8 -14 0
-9 -10 0
-9 -11 0
-9 -12 0
-9 -13 0
-9 -14 0
-10 -11 0
-10 -12 0
-10 -13 0
-10 -14 0
-11 -12 0
-11 -13 0
-11 -14 0
-12 -13 0
-12 -14 0
-13 -14 0
5806 5807 5808 5809 5810 5811 5812 5813 5814 5815 5816 5817 5818 5819 5820 5821 5822 0
-5806 -5807 0
-5806 -5808 0
-5806 -5809 0
-5806 -5810 0
-5806 -5811 0
-5806 -5812 0
-5806 -5813 0
-5806 -5814 0
-5806 -5815 0
-5806 -5816 0
-5806 -5817 0
-5806 -5818 0
-5806 -5819 0
-5806 -5820 0
-5806 -5821 0
-5806 -5822 0
-5807 -5808 0
-5807 -5809 0
-5807 -5810 0
-5807 -5811 0
-5807 -5812 0
-5807 -5813 0
-5807 -5814 0
-5807 -5815 0
-5807 -5816 0
-5807 -5817 0
-5807 -5818 0
-5807 -5819 0
-5807 -5820 0
-5807 -5821 0
-5807 -5822 0
-5808 -5809 0
-5808 -5810 0
-5808 -5811 0
-5808 -5812 0
-5808 -5813 0
-5808 -5814 0
-5808 -5815 0
-5808 -5816 0
-5808 -5817 0
-5808 -5818 0
-5808 -5819 0
-5808 -5820 0
-5808 -5821 0
-5808 -5822 0
-5809 -5810 0
-5809 -5811 0
-5809 -5812 0
-5809 -5813 0
-5809 -5814 0
-5809 -5815 0
-5809 -5816 0
-5809 -5817 0
-5809 -5818 0
-5809 -5819 0
-5809 -5820 0
-5809 -5821 0
-5809 -5822 0
-5810 -5811 0
-5810 -5812 0
-5810 -5813 0
-5810 -5814 0
-5810 -5815 0
-5810 -5816 0
-5810 -5817 0
-5810 -5818 0
-5810 -5819 0
-5810 -5820 0
-5810 -5821 0
-5810 -5822 0
-5811 -5812 0
-5811 -5813 0
-5811 -5814 0
-5811 -5815 0
-5811 -5816 0
-5811 -5817 0
-5811 -5818 0
-5811 -5819 0
-5811 -5820 0
-5811 -5821 0
-5811 -5822 0
-5812 -5813 0
-5812 -5814 0
-5812 -5815 0
-5812 -5816 0
-5812 -5817 0
-5812 -5818 0
-5812 -5819 0
-5812 -5820 0
-5812 -5821 0
-5812 -5822 0
-5813 -5814 0
-5813 -5815 0
-5813 -5816 0
-5813 -5817 0
-5813 -5818 0
-5813 -5819 0
-5813 -5820 0
-5813 -5821 0
-5813 -5822 0
-5814 -5815 0
-5814 -5816 0
-5814 -5817 0
-5814 -5818 0
-5814 -5819 0
-5814 -5820 0
-5814 -5821 0
-5814 -5822 0
-5815 -5816 0
-5815 -5817 0
-5815 -5818 0
-5815 -5819 0
-5815 -5820 0
-5815 -5821 0
-5815 -5822 0
-5816 -5817 0
-5816 -5818 0
-5816 -5819 0
-5816 -5820 0
-5816 -5821 0
-5816 -5822 0
-5817 -5818 0
-5817 -5819 0
-5817 -5820 0
-5817 -5821 0
-5817 -5822 0
-5818 -5819 0
-5818 -5820 0
-5818 -5821 0
-5818 -5822 0
-5819 -5820 0
-5819 -5821 0
-5819 -5822 0
-5820 -5821 0
-5820 -5822 0
-5821 -5822 0
